data;


param d:= 100;
param r:=5;
param p:=0.740000;
param M:=1000;
param U:=
         1         1       -1.213292e+00
         2         1       -1.809002e-01
         3         1        1.439670e+00
         4         1       -1.685013e-01
         5         1        1.359170e+00
         6         1       -2.645316e-01
         7         1       -1.554493e+00
         8         1       -1.114595e+00
         9         1       -4.016804e-01
        10         1        5.412274e-02
        11         1       -1.373728e+00
        12         1       -5.607819e-01
        13         1        2.496363e-01
        14         1        4.186427e-01
        15         1        1.476376e+00
        16         1        4.290731e-01
        17         1        2.130700e-01
        18         1        4.337729e-01
        19         1       -9.681352e-01
        20         1        1.379272e+00
        21         1       -8.919046e-01
        22         1       -1.513843e-01
        23         1       -2.124506e+00
        24         1        2.159898e+00
        25         1        4.708099e-01
        26         1       -2.321408e+00
        27         1       -1.064187e+00
        28         1       -1.062551e-01
        29         1       -9.234507e-01
        30         1       -2.427418e+00
        31         1        1.069800e+00
        32         1        1.108636e-02
        33         1       -4.500797e-01
        34         1        6.133513e-02
        35         1       -9.968551e-01
        36         1        1.437503e+00
        37         1       -2.539284e+00
        38         1       -1.386544e-01
        39         1       -1.492828e+00
        40         1       -1.318742e+00
        41         1       -1.266864e-01
        42         1        5.666488e-02
        43         1        2.557762e-01
        44         1        5.891035e-01
        45         1        6.744680e-01
        46         1        7.840530e-01
        47         1        6.035282e-01
        48         1       -2.283598e+00
        49         1        3.975634e-04
        50         1        7.649074e-01
        51         1       -2.307258e-01
        52         1        4.525396e-01
        53         1        1.656484e+00
        54         1        4.482966e-01
        55         1        1.084055e+00
        56         1       -1.102005e+00
        57         1        1.691602e-01
        58         1        2.366240e-01
        59         1       -8.574142e-02
        60         1       -1.086945e+00
        61         1       -1.025841e-01
        62         1       -1.319387e+00
        63         1       -3.292905e-01
        64         1       -6.484720e-01
        65         1        9.692340e-01
        66         1       -2.235024e-01
        67         1       -1.186746e+00
        68         1       -3.767798e-01
        69         1        2.809702e+00
        70         1       -3.591165e-01
        71         1       -3.483567e-01
        72         1        1.174009e+00
        73         1        4.192580e-02
        74         1       -1.282687e+00
        75         1       -1.422045e+00
        76         1        9.696057e-01
        77         1        8.579235e-03
        78         1        3.704850e-02
        79         1       -1.403048e+00
        80         1        4.386036e-01
        81         1        1.319048e+00
        82         1        6.253684e-01
        83         1        8.873745e-01
        84         1        1.576110e-01
        85         1        8.391700e-01
        86         1       -4.226228e-01
        87         1        4.745199e-01
        88         1       -1.244994e+00
        89         1       -1.214827e+00
        90         1       -6.806503e-01
        91         1        1.066601e+00
        92         1       -8.776777e-02
        93         1       -2.326545e-01
        94         1        5.675533e-01
        95         1       -1.436327e+00
        96         1       -6.965236e-01
        97         1       -8.819962e-01
        98         1        8.380941e-01
        99         1       -2.085517e+00
       100         1        1.514735e+00
         1         2       -9.223375e-01
         2         2       -3.494744e-01
         3         2       -3.701476e-01
         4         2        4.123073e-01
         5         2       -3.416731e-01
         6         2        4.264583e-01
         7         2       -1.050086e+00
         8         2       -2.035031e+00
         9         2        1.312428e+00
        10         2        1.233705e+00
        11         2        1.457869e-01
        12         2        9.223841e-01
        13         2        4.006743e-01
        14         2       -9.865402e-02
        15         2       -4.828818e-01
        16         2       -7.300420e-02
        17         2        1.339192e+00
        18         2       -2.296216e-01
        19         2       -5.282533e-01
        20         2        2.140971e+00
        21         2       -1.359709e+00
        22         2       -1.398795e+00
        23         2       -6.572957e-01
        24         2        5.501745e-01
        25         2       -7.228312e-01
        26         2       -1.023710e+00
        27         2       -1.273889e+00
        28         2       -3.238626e-01
        29         2       -4.205501e-01
        30         2       -7.849055e-01
        31         2       -1.400438e-01
        32         2        1.939155e-01
        33         2        1.673760e+00
        34         2       -2.882978e-01
        35         2       -2.551047e+00
        36         2        2.275388e-01
        37         2       -1.212352e-01
        38         2       -1.169573e+00
        39         2       -1.206629e+00
        40         2        6.783777e-02
        41         2        1.235204e+00
        42         2       -9.441051e-01
        43         2       -1.252747e+00
        44         2        3.526668e-01
        45         2        1.536481e+00
        46         2       -9.895133e-01
        47         2       -1.996140e+00
        48         2       -6.995578e-01
        49         2        2.010569e-01
        50         2       -1.680357e+00
        51         2       -8.439049e-01
        52         2       -5.831913e-02
        53         2        1.219312e+00
        54         2       -1.789684e+00
        55         2       -2.895847e-01
        56         2       -4.122299e-01
        57         2       -4.551163e-01
        58         2       -6.643480e-01
        59         2        1.429595e-01
        60         2       -1.729223e-01
        61         2        2.993859e-01
        62         2       -2.608541e-01
        63         2        1.064262e+00
        64         2        6.208088e-01
        65         2       -3.641233e-02
        66         2        1.079902e+00
        67         2       -1.110145e+00
        68         2        1.347505e+00
        69         2       -1.021356e+00
        70         2        5.304939e-01
        71         2        1.338643e+00
        72         2        1.046451e+00
        73         2       -2.361846e-01
        74         2        1.061260e+00
        75         2        3.968761e-01
        76         2        6.588277e-01
        77         2        1.596591e+00
        78         2       -4.311385e-01
        79         2        2.550674e+00
        80         2       -1.130142e-01
        81         2       -3.789688e-01
        82         2       -4.115611e-01
        83         2        4.310958e-01
        84         2        1.835923e-01
        85         2        7.597164e-01
        86         2        2.716476e-01
        87         2       -1.692661e+00
        88         2       -1.141198e+00
        89         2        1.222856e+00
        90         2       -2.696381e-01
        91         2        1.207137e+00
        92         2       -4.631804e-02
        93         2       -7.517550e-01
        94         2       -1.253787e+00
        95         2       -3.769036e-02
        96         2       -1.084240e-01
        97         2        1.062138e+00
        98         2       -1.715318e+00
        99         2       -1.002956e+00
       100         2        1.289377e-01
         1         3       -1.608903e-01
         2         3       -1.200831e+00
         3         3       -1.952102e+00
         4         3        9.026749e-01
         5         3       -7.355166e-01
         6         3       -1.637116e-01
         7         3       -1.232640e+00
         8         3        5.658590e-01
         9         3       -7.282789e-01
        10         3       -1.232551e+00
        11         3       -1.392771e+00
        12         3       -1.177663e+00
        13         3       -3.459950e-01
        14         3       -1.587519e+00
        15         3        1.078787e+00
        16         3       -9.817501e-01
        17         3        7.955237e-01
        18         3       -5.303393e-02
        19         3        2.021172e+00
        20         3       -2.782049e+00
        21         3       -1.161121e+00
        22         3       -2.214512e+00
        23         3        1.700490e+00
        24         3       -2.161498e+00
        25         3       -6.506985e-01
        26         3        1.947538e+00
        27         3        1.268477e-01
        28         3        8.128348e-01
        29         3       -1.453237e-01
        30         3       -1.752719e+00
        31         3        3.635471e-01
        32         3        2.390850e-01
        33         3       -2.653418e-02
        34         3        1.679563e+00
        35         3       -9.376144e-01
        36         3       -2.850478e-01
        37         3        9.040258e-01
        38         3        5.341677e-01
        39         3        3.337907e-02
        40         3        8.754576e-01
        41         3       -7.481353e-01
        42         3       -5.060558e-01
        43         3        1.948252e+00
        44         3        1.585192e+00
        45         3       -1.261616e+00
        46         3       -6.000650e-01
        47         3        4.466197e-01
        48         3        7.303662e-01
        49         3        1.032438e+00
        50         3       -8.277069e-01
        51         3        2.447170e-01
        52         3        1.576063e-01
        53         3        1.547407e+00
        54         3        1.716917e+00
        55         3       -7.501154e-01
        56         3        3.764577e-01
        57         3        1.096263e+00
        58         3        1.322755e+00
        59         3        5.087636e-01
        60         3       -1.197682e+00
        61         3       -8.603755e-01
        62         3       -1.446662e+00
        63         3        1.772806e+00
        64         3       -1.513367e-02
        65         3       -9.374863e-01
        66         3       -8.688768e-01
        67         3        1.623687e+00
        68         3        4.534021e-01
        69         3       -7.894643e-01
        70         3       -1.682823e+00
        71         3        7.174579e-01
        72         3       -1.137539e+00
        73         3        2.112122e-01
        74         3        1.177303e+00
        75         3       -1.233817e+00
        76         3        8.626939e-01
        77         3       -8.712091e-01
        78         3       -1.076476e+00
        79         3        6.013481e-01
        80         3       -5.694520e-01
        81         3       -1.494043e+00
        82         3       -5.900410e-01
        83         3       -2.455870e-01
        84         3        2.505815e+00
        85         3       -4.392297e-01
        86         3        4.081496e-01
        87         3       -2.044090e+00
        88         3       -1.059659e+00
        89         3        3.185957e-01
        90         3       -1.245154e+00
        91         3       -9.671334e-01
        92         3        2.546881e-01
        93         3        1.300230e-01
        94         3       -5.565477e-01
        95         3        1.913389e-01
        96         3       -6.717070e-01
        97         3       -2.040239e+00
        98         3       -1.363513e+00
        99         3       -1.077342e+00
       100         3        1.847419e-01
         1         4       -1.204771e+00
         2         4       -1.781470e+00
         3         4        3.055154e-01
         4         4        9.366613e-01
         5         4        8.412097e-01
         6         4       -2.894891e-01
         7         4       -1.054713e+00
         8         4        1.335843e+00
         9         4        1.520221e-01
        10         4        8.511828e-01
        11         4       -7.462616e-01
        12         4       -1.093812e+00
        13         4       -4.351834e-01
        14         4       -1.257514e+00
        15         4       -3.473683e-01
        16         4        7.362423e-02
        17         4        1.143589e+00
        18         4        1.138071e-01
        19         4        1.842898e+00
        20         4        1.253152e+00
        21         4        1.935414e+00
        22         4        1.718672e-01
        23         4       -9.194002e-01
        24         4       -1.000992e+00
        25         4       -6.352275e-01
        26         4        8.206756e-01
        27         4        1.741410e+00
        28         4       -1.534149e+00
        29         4       -7.173174e-01
        30         4        5.302623e-01
        31         4        1.341421e+00
        32         4       -1.563915e+00
        33         4        5.979359e-01
        34         4        3.631260e-01
        35         4        5.526037e-01
        36         4        2.284239e-01
        37         4       -2.306534e-01
        38         4       -8.489485e-01
        39         4       -3.063015e+00
        40         4       -1.001321e+00
        41         4        8.905574e-01
        42         4       -4.753268e-01
        43         4       -4.441578e-02
        44         4        5.585443e-01
        45         4       -3.183961e-01
        46         4       -5.666078e-01
        47         4        1.665660e+00
        48         4        5.058724e-01
        49         4       -6.815227e-01
        50         4        3.997391e-01
        51         4        6.722698e-01
        52         4        3.697393e-01
        53         4       -9.125748e-01
        54         4        4.514884e-01
        55         4       -1.873374e-01
        56         4       -8.699058e-02
        57         4        1.791845e+00
        58         4        1.041027e+00
        59         4        8.343609e-01
        60         4        1.085751e+00
        61         4       -1.583283e+00
        62         4        1.044688e+00
        63         4       -4.012660e-01
        64         4        5.934269e-01
        65         4        5.094038e-01
        66         4       -2.897582e-01
        67         4        9.686367e-01
        68         4       -7.386279e-01
        69         4        7.184619e-01
        70         4        8.334435e-01
        71         4       -1.319169e+00
        72         4        4.514524e-01
        73         4        1.155997e+00
        74         4        1.402065e+00
        75         4       -6.858992e-01
        76         4        6.039452e-02
        77         4        5.738923e-02
        78         4        3.644218e-01
        79         4       -2.085400e+00
        80         4       -7.768110e-01
        81         4        1.135043e+00
        82         4        1.445104e+00
        83         4        3.634385e-01
        84         4       -1.668016e+00
        85         4       -6.422772e-01
        86         4       -9.504284e-01
        87         4        7.252333e-01
        88         4       -1.160671e+00
        89         4        2.641495e+00
        90         4        1.754780e-01
        91         4        7.075277e-01
        92         4       -1.670639e+00
        93         4        9.839799e-02
        94         4       -1.395215e+00
        95         4        1.771457e+00
        96         4        1.389104e+00
        97         4        1.571400e-01
        98         4       -1.138490e+00
        99         4        8.747371e-02
       100         4       -6.617878e-01
         1         5       -1.342372e-01
         2         5       -4.578386e-01
         3         5        2.297721e+00
         4         5       -1.269709e+00
         5         5       -1.625176e+00
         6         5        1.358845e+00
         7         5       -5.097720e-01
         8         5        8.886274e-01
         9         5        1.927117e+00
        10         5        1.711099e+00
        11         5       -1.994296e-01
        12         5        5.812148e-01
        13         5       -1.151669e+00
        14         5        2.957126e-01
        15         5       -1.297188e+00
        16         5        2.540906e-01
        17         5        9.187864e-01
        18         5       -5.871677e-01
        19         5        1.215351e+00
        20         5       -1.332476e+00
        21         5       -2.512595e-01
        22         5       -1.214412e-02
        23         5        1.620554e+00
        24         5       -1.408502e+00
        25         5        9.975853e-01
        26         5       -6.141144e-02
        27         5        8.863697e-01
        28         5       -1.106127e+00
        29         5       -1.438189e-01
        30         5       -1.432710e+00
        31         5        1.838205e-01
        32         5       -4.661374e-01
        33         5       -1.974992e-01
        34         5       -3.129834e-01
        35         5        1.065601e+00
        36         5        6.426261e-01
        37         5        3.926075e-01
        38         5       -8.315347e-01
        39         5        2.426959e+00
        40         5        5.096857e-01
        41         5       -1.553553e+00
        42         5       -6.002792e-01
        43         5        4.246236e-01
        44         5       -1.714709e+00
        45         5       -1.049130e+00
        46         5        7.406371e-01
        47         5       -2.543272e-01
        48         5        7.605526e-01
        49         5        4.709820e-01
        50         5        1.536760e+00
        51         5        1.042577e-01
        52         5       -8.080045e-01
        53         5       -8.351630e-01
        54         5        8.278961e-02
        55         5       -7.562902e-01
        56         5        4.395274e-01
        57         5       -1.495144e+00
        58         5        1.253905e-01
        59         5       -3.306679e-01
        60         5       -8.831302e-01
        61         5        1.073206e+00
        62         5        4.189491e-01
        63         5       -1.300029e-01
        64         5       -4.239227e-01
        65         5       -1.452980e+00
        66         5        1.327531e-01
        67         5       -1.005693e+00
        68         5        5.503102e-01
        69         5       -1.140388e+00
        70         5       -4.576806e-01
        71         5        2.568011e+00
        72         5       -1.580963e+00
        73         5       -3.510126e-01
        74         5       -2.386568e-01
        75         5       -6.152081e-01
        76         5        2.149766e+00
        77         5       -7.017049e-01
        78         5       -2.358140e-02
        79         5       -1.521292e-02
        80         5        1.217497e+00
        81         5       -5.087177e-03
        82         5       -2.418454e+00
        83         5        1.151948e+00
        84         5       -6.179381e-01
        85         5        1.407732e+00
        86         5        7.228096e-01
        87         5       -1.102545e+00
        88         5        1.691317e+00
        89         5        4.373125e-01
        90         5       -7.147201e-01
        91         5        4.452701e-01
        92         5        5.671947e-01
        93         5        1.873646e+00
        94         5        4.690328e-01
        95         5       -1.469570e+00
        96         5       -2.480344e+00
        97         5        5.990415e-01
        98         5       -4.375088e-01
        99         5        8.722875e-01
       100         5       -9.110919e-02
;

param theta:=
    1        1.679058e-01
    2        1.457655e+00
    3        9.014303e-01
    4        1.615005e+00
    5       -1.550889e+00
;
param X_true:=
    1       -3.430725e+00
    2       -3.789278e+00
    3       -5.127602e+00
    4        4.868297e+00
    5        2.946180e+00
    6       -2.145306e+00
    7       -3.815578e+00
    8       -1.864205e+00
    9       -1.554097e+00
   10       -5.827146e-01
   11       -2.169559e+00
   12       -2.479134e+00
   13        1.397357e+00
   14       -3.994059e+00
   15        1.967261e+00
   16       -1.194513e+00
   17        3.126930e+00
   18        7.847485e-01
   19        1.980795e+00
   20        4.934931e+00
   21        3.369683e-01
   22       -3.764206e+00
   23       -3.780090e+00
   24       -2.159930e-01
   25       -4.134185e+00
   26        1.294214e+00
   27       -4.835028e-01
   28       -5.193867e-01
   29       -1.834493e+00
   30       -5.330191e-02
   31        2.184519e+00
   32       -1.302762e+00
   33        3.612243e+00
   34        2.175922e+00
   35       -5.491287e+00
   36       -3.116482e-01
   37       -7.695602e-01
   38       -1.328039e+00
   39       -1.069014e+01
   40       -1.740980e+00
   41        4.952479e+00
   42       -1.659528e+00
   43       -7.571892e-01
   44        5.603295e+00
   45        2.328519e+00
   46       -3.915359e+00
   47        6.787329e-01
   48       -1.107314e+00
   49       -6.072941e-01
   50       -4.804830e+00
   51       -1.242393e-01
   52        1.983302e+00
   53        3.271781e+00
   54       -3.850302e-01
   55       -4.590102e-02
   56       -1.268720e+00
   57        5.565848e+00
   58        1.750509e+00
   59        2.512931e+00
   60        1.608938e+00
   61       -4.577824e+00
   62       -8.683990e-01
   63        2.647671e+00
   64        2.398245e+00
   65        2.340685e+00
   66        7.951863e-02
   67        2.770243e+00
   68        2.632864e-01
   69        1.200268e+00
   70        1.251859e+00
   71       -3.573637e+00
   72        3.878070e+00
   73        2.264479e+00
   74        5.027310e+00
   75       -9.260731e-01
   76       -1.335706e+00
   77        2.724334e+00
   78       -9.674834e-01
   79        6.801567e-01
   80       -3.747169e+00
   81        1.632852e-01
   82        5.057813e+00
   83       -6.435831e-01
   84        8.173943e-01
   85       -2.368146e+00
   86       -1.963018e+00
   87       -1.349065e+00
   88       -7.325257e+00
   89        5.453523e+00
   90       -2.378946e-01
   91        1.518971e+00
   92       -3.430416e+00
   93       -3.764559e+00
   94       -5.214680e+00
   95        5.016423e+00
   96        5.209655e+00
   97       -1.114260e+00
   98       -4.748872e+00
   99       -3.994833e+00
  100       -3.186794e-01
;
param X:=
    1       -5.630965e-01
    2       -3.789278e+00
    3       -5.127602e+00
    4       -1.907199e-01
    5       -5.619040e-01
    6       -5.243698e-01
    7       -3.665754e-01
    8       -1.864205e+00
    9       -1.554097e+00
   10        1.891176e+00
   11        9.966556e-02
   12       -4.049129e-01
   13        1.397357e+00
   14       -1.410617e+00
   15       -3.771570e-01
   16        1.475854e+00
   17        1.200582e+00
   18       -4.884630e-01
   19        1.980795e+00
   20        1.794489e+00
   21        3.369683e-01
   22       -3.764206e+00
   23       -3.568493e-01
   24        1.088478e+00
   25       -6.743028e-01
   26        8.789210e-02
   27       -1.127610e-01
   28        1.401559e-01
   29        5.014722e-01
   30        2.566889e-01
   31       -7.476077e-01
   32       -3.792893e-01
   33       -2.155845e-01
   34        2.175922e+00
   35        1.865077e+00
   36        1.829216e+00
   37        1.383237e+00
   38       -1.337357e+00
   39       -1.069014e+01
   40       -1.587490e-01
   41       -4.770367e-01
   42       -3.170449e-01
   43       -7.571892e-01
   44        2.095907e+00
   45        2.328519e+00
   46        1.181525e+00
   47        1.703584e-01
   48       -5.061264e-01
   49       -2.016677e+00
   50        2.487801e-01
   51       -1.242393e-01
   52        1.202340e+00
   53       -5.526332e-01
   54       -3.850302e-01
   55       -4.136321e-02
   56       -1.268720e+00
   57        3.653900e-01
   58        1.750509e+00
   59       -8.320841e-01
   60       -4.858598e-01
   61       -3.120955e-01
   62       -8.683990e-01
   63        1.509400e-01
   64        1.838245e+00
   65        9.271523e-01
   66       -5.223714e-01
   67        2.770243e+00
   68        1.432771e+00
   69       -5.611359e-01
   70       -9.160067e-02
   71        2.149760e-01
   72       -6.678595e-01
   73        3.646827e-01
   74       -7.519123e-01
   75       -9.260731e-01
   76       -1.335706e+00
   77        2.724334e+00
   78        1.579059e+00
   79       -8.210426e-01
   80       -3.747169e+00
   81        1.935527e-01
   82       -1.953113e-01
   83       -6.435831e-01
   84        8.173943e-01
   85       -1.180588e-01
   86       -1.963018e+00
   87       -1.349065e+00
   88        2.323977e-01
   89       -4.132640e-01
   90       -9.484315e-01
   91        6.756611e-01
   92       -5.888084e-01
   93       -1.457023e+00
   94       -1.640928e+00
   95        2.417009e+00
   96        7.561475e-01
   97        8.982583e-01
   98        6.991742e-01
   99       -1.338282e-01
  100       -1.587148e+00
;
param outliervec:=
    1    1
    2    0
    3    0
    4    1
    5    1
    6    1
    7    1
    8    0
    9    0
   10    1
   11    1
   12    1
   13    0
   14    1
   15    1
   16    1
   17    1
   18    1
   19    0
   20    1
   21    0
   22    0
   23    1
   24    1
   25    1
   26    1
   27    1
   28    1
   29    1
   30    1
   31    1
   32    1
   33    1
   34    0
   35    1
   36    1
   37    1
   38    1
   39    0
   40    1
   41    1
   42    1
   43    0
   44    1
   45    0
   46    1
   47    1
   48    1
   49    1
   50    1
   51    0
   52    1
   53    1
   54    0
   55    1
   56    0
   57    1
   58    0
   59    1
   60    1
   61    1
   62    0
   63    1
   64    1
   65    1
   66    1
   67    0
   68    1
   69    1
   70    1
   71    1
   72    1
   73    1
   74    1
   75    0
   76    0
   77    0
   78    1
   79    1
   80    0
   81    1
   82    1
   83    0
   84    0
   85    1
   86    0
   87    0
   88    1
   89    1
   90    1
   91    1
   92    1
   93    1
   94    1
   95    1
   96    1
   97    1
   98    1
   99    1
  100    1
;